output ["\"output\": {","\"default\": ",showJSON(concat(((["["]++[(((if i==1 /\ j==1 then "[" else "" endif++if j==1 then "[" else "" endif)++show(table[i,j,k]))++if j==N then "]," else "," endif)++if j==N /\ i==N then "]," else "" endif | k in COURIERS, i in NODES, j in NODES])++["]\n"])++[show(obj)++"\n"])),", \"raw\": ",showJSON(concat(((["["]++[(((if i==1 /\ j==1 then "[" else "" endif++if j==1 then "[" else "" endif)++show(table[i,j,k]))++if j==N then "]," else "," endif)++if j==N /\ i==N then "]," else "" endif | k in COURIERS, i in NODES, j in NODES])++["]\n"])++[show(obj)++"\n"])),"}, \"sections\": [\"default\", \"raw\"]"];
set of int: COURIERS = 1..2;
set of int: NODES = 1..21;
array [NODES,NODES,COURIERS] of int: table;
int: N = 21;
array [NODES,NODES] of int: D = [|0,5,1,2,1,2,2,3,2,3,3,5,1,3,3,1,4,4,3,4,2|5,0,4,3,6,5,5,2,3,2,4,2,4,4,2,6,1,1,4,3,3|1,4,0,3,2,3,1,2,1,2,4,4,2,2,2,2,3,3,4,3,1|2,3,3,0,3,2,4,1,4,3,1,3,1,5,5,3,2,4,1,2,2|1,6,2,3,0,1,3,4,3,4,2,6,2,4,4,2,5,5,4,5,3|2,5,3,2,1,0,4,3,4,3,1,5,1,5,5,3,4,4,3,4,2|2,5,1,4,3,4,0,3,2,3,5,5,3,1,3,1,4,4,5,4,2|3,2,2,1,4,3,3,0,3,2,2,2,2,4,4,4,1,3,2,1,1|2,3,1,4,3,4,2,3,0,1,5,3,3,1,1,3,2,2,5,4,2|3,2,2,3,4,3,3,2,1,0,4,2,2,2,2,4,1,1,4,3,1|3,4,4,1,2,1,5,2,5,4,0,4,2,6,6,4,3,5,2,3,3|5,2,4,3,6,5,5,2,3,2,4,0,4,4,4,6,1,3,2,1,3|1,4,2,1,2,1,3,2,3,2,2,4,0,4,4,2,3,3,2,3,1|3,4,2,5,4,5,1,4,1,2,6,4,4,0,2,2,3,3,6,5,3|3,2,2,5,4,5,3,4,1,2,6,4,4,2,0,4,3,1,6,5,3|1,6,2,3,2,3,1,4,3,4,4,6,2,2,4,0,5,5,4,5,3|4,1,3,2,5,4,4,1,2,1,3,1,3,3,3,5,0,2,3,2,2|4,1,3,4,5,4,4,3,2,1,5,3,3,3,1,5,2,0,5,4,2|3,4,4,1,4,3,5,2,5,4,2,2,2,6,6,4,3,5,0,1,3|4,3,3,2,5,4,4,1,4,3,3,1,3,5,5,5,2,4,1,0,2|2,3,1,2,3,2,2,1,2,1,3,3,1,3,3,3,2,2,3,2,0|];
int: obj = sum([D[i,j]*table[i,j,k] | i,j in NODES, k in COURIERS]);
